####################################################################### 
# 
# This file contains crystal structure data downloaded from the 
# Cambridge Structural Database (CSD) hosted by the Cambridge 
# Crystallographic Data Centre (CCDC).
# 
# Full information about CCDC data access policies and citation 
# guidelines are available at http://www.ccdc.cam.ac.uk/access/V1 
# 
# Audit and citation data items may have been added by the CCDC. 
# Please retain this information to preserve the provenance of 
# this file and to allow appropriate attribution of the data. 
# 
#######################################################################

data_master_file_afc7
_audit_block_doi                 10.5517/cc4n3hc
_database_code_depnum_ccdc_archive 'CCDC 138492'
loop_
_citation_id
_citation_doi
_citation_year
1 10.1016/S0040-4020(00)00368-9 2000
_audit_update_record             
;
1999-12-24 deposited with the CCDC.	2022-04-18 downloaded from the CCDC.
;
#--------------------------------------------------------------------------=
#---
_audit_creation_date             'Mon Jul  5 11:29:49 1999'
_audit_creation_method           'from TEXRAY.INF file'
#--------------------------------------------------------------------------=
#---
_computing_data_collection       'MSC/AFC Diffractometer Control'
_computing_cell_refinement       'MSC/AFC Diffractometer Control'
_computing_data_reduction        'teXsan: PROCESS (MSC)'
_computing_structure_solution    SHELXS86
_computing_structure_refinement  'teXsan: LS (MSC)'
_computing_publication_material  'teXsan: FINISH (MSC)'
#--------------------------------------------------------------------------=
#---
_chemical_compound_source        ?
_chemical_name_common            
;
(R)-(+)-1,1'-bi-2-naphthol=A1=A4N-benzylcinchoninium chloride complex
;
_chemical_formula_weight         707.31
_chemical_formula_analytical     ?
_chemical_formula_sum            'C46 H43 Cl N2 O3'
_chemical_formula_moiety         ?
_chemical_formula_structural     ?
_chemical_melting_point          '521 k (with decomposition)'
#--------------------------------------------------------------------------=
#----
_cell_length_a                   12.997(3)
_cell_length_b                   12.9968
_cell_length_c                   43.199(6)
_cell_angle_alpha                90
_cell_angle_beta                 90
_cell_angle_gamma                90
_cell_volume                     7297(3)
_cell_formula_units_Z            8.00
_cell_measurement_temperature    20.0
_cell_measurement_reflns_used    22
_cell_measurement_theta_min      13.42
_cell_measurement_theta_max      20.59
#--------------------------------------------------------------------------=
#---
_symmetry_cell_setting           tetragonal
_symmetry_space_group_name_H-M   'P 43 21 2  '
_symmetry_Int_Tables_number      96
_symmetry_space_group_name_Hall  ?
loop_
_symmetry_equiv_pos_as_xyz
'   +x,   +y,   +z'
'   -x,   -y,1/2+z'
1/2-y,1/2+x,3/4+z
1/2+y,1/2-x,1/4+z
'   +y,   +x,   -z'
'   -y,   -x,1/2-z'
1/2-x,1/2+y,3/4-z
1/2+x,1/2-y,1/4-z
#--------------------------------------------------------------------------=
#---
_exptl_crystal_description       prismatic
_exptl_crystal_colour            colorless
_exptl_crystal_size_max          0.300
_exptl_crystal_size_mid          ?
_exptl_crystal_size_min          0.200
_exptl_crystal_density_diffrn    1.288
_exptl_crystal_density_measured  ?
_exptl_crystal_F000              2992.00
_exptl_absorpt_coefficient_mu_cm 1.501
_exptl_absorpt_correction_type   empirical
_exptl_absorpt_process_descript  psi-scan
_exptl_absorpt_correction_T_max  1.000
_exptl_absorpt_correction_T_min  0.589
#--------------------------------------------------------------------------=
#---
_diffrn_special_details          none
_diffrn_ambient_temperature      20.0
_diffrn_radiation_wavelength     0.7107
_diffrn_radiation_type           MoKalpha
_diffrn_radiation_source         'X-ray tube'
_diffrn_radiation_monochromator  graphite
_diffrn_radiation_detector       ?
_diffrn_measurement_device       AFC7R
_diffrn_measurement_method       'omega/2-theta scans'

_diffrn_standards_number         3
_diffrn_standards_interval_count 200
_diffrn_standards_decay_\%       -1.16
loop_
_diffrn_standard_refln_index_h
_diffrn_standard_refln_index_k
_diffrn_standard_refln_index_l
? ? ?

_diffrn_reflns_number            4009
_diffrn_reflns_av_R_equivalents  0.00
_diffrn_reflns_av_sigmaI/Inet    ?
_diffrn_reflns_h_min             0
_diffrn_reflns_h_max             15
_diffrn_reflns_k_min             0
_diffrn_reflns_k_max             0
_diffrn_reflns_l_min             0
_diffrn_reflns_l_max             33
_diffrn_theta_min                ?
_diffrn_theta_max                25.4920
_diffrn_reflns_reduction_process ?

_diffrn_orient_matrix_11         -0.03075
_diffrn_orient_matrix_12         0.02663
_diffrn_orient_matrix_13         0.01965
_diffrn_orient_matrix_21         0.06553
_diffrn_orient_matrix_22         -0.01557
_diffrn_orient_matrix_23         0.01119
_diffrn_orient_matrix_31         0.02609
_diffrn_orient_matrix_32         0.07049
_diffrn_orient_matrix_33         -0.00495
#--------------------------------------------------------------------------=
#---
loop_
_atom_type_symbol
_atom_type_oxidation_number
_atom_type_number_in_cell
_atom_type_scat_dispersion_real
_atom_type_scat_dispersion_imag
_atom_type_scat_source
C 0 368 0.003 0.002 'International Tables'
H 0 344 0.000 0.000 'International Tables'
N 0 16 0.006 0.003 'International Tables'
O 0 24 0.011 0.006 'International Tables'
Cl 0 8 0.148 0.159 'International Tables'
#--------------------------------------------------------------------------=
#---
loop_
_atom_site_label
_atom_site_fract_x
_atom_site_fract_y
_atom_site_fract_z
_atom_site_U_iso_or_equiv
_atom_site_thermal_displace_type
_atom_site_calc_flag
_atom_site_calc_attached_atom
Cl -0.3497(2) -0.2518(2) -0.09743(5) 0.0532 Uij ? ?
O1 -0.2906(4) -0.5472(4) -0.0809(1) 0.0479 Uij ? ?
O2 -0.0872(4) -0.5990(4) -0.1036(1) 0.0465 Uij ? ?
O3 -0.1371(5) -0.3439(5) -0.0909(1) 0.0614 Uij ? ?
N1 -0.4924(5) -0.5929(5) -0.1051(1) 0.0372 Uij ? ?
N2 -0.1885(6) -0.8157(7) -0.0032(2) 0.0623 Uij ? ?
C1 -0.5947(7) -0.6452(7) -0.1117(2) 0.0455 Uij ? ?
C2 -0.6458(7) -0.6761(7) -0.0807(2) 0.0512 Uij ? ?
C3 -0.5949(6) -0.6157(7) -0.0539(2) 0.0424 Uij ? ?
C4 -0.4824(6) -0.6526(7) -0.0504(2) 0.0392 Uij ? ?
C5 -0.4342(6) -0.6662(6) -0.0831(2) 0.0351 Uij ? ?
C6 -0.5931(6) -0.5021(7) -0.0644(2) 0.0416 Uij ? ?
C7 -0.5121(6) -0.4886(6) -0.0897(2) 0.0375 Uij ? ?
C8 -0.5758(8) -0.4303(8) -0.0365(2) 0.0562 Uij ? ?
C9 -0.506(1) -0.365(1) -0.0325(2) 0.1037 Uij ? ?
C10 -0.4338(7) -0.5789(7) -0.1355(2) 0.0456 Uij ? ?
C11 -0.4877(7) -0.5139(7) -0.1597(2) 0.0399 Uij ? ?
C12 -0.5483(8) -0.5552(7) -0.1826(2) 0.0564 Uij ? ?
C13 -0.5905(8) -0.4935(9) -0.2060(2) 0.0662 Uij ? ?
C14 -0.5693(8) -0.3903(9) -0.2057(2) 0.0615 Uij ? ?
C15 -0.5089(7) -0.3476(7) -0.1831(2) 0.0500 Uij ? ?
C16 -0.4678(7) -0.4086(8) -0.1598(2) 0.0457 Uij ? ?
C17 -0.3141(6) -0.6537(6) -0.0828(2) 0.0350 Uij ? ?
C18 -0.2691(6) -0.7139(7) -0.0558(2) 0.0405 Uij ? ?
C19 -0.2664(6) -0.8209(7) -0.0553(2) 0.0374 Uij ? ?
C20 -0.2984(7) -0.8854(7) -0.0803(2) 0.0455 Uij ? ?
C21 -0.2902(7) -0.9891(7) -0.0780(2) 0.0532 Uij ? ?
C22 -0.2477(8) -1.0363(8) -0.0518(2) 0.0633 Uij ? ?
C23 -0.2139(7) -0.9783(8) -0.0276(2) 0.0556 Uij ? ?
C24 -0.2240(7) -0.8692(7) -0.0291(2) 0.0460 Uij ? ?
C25 -0.1911(8) -0.7160(9) -0.0053(2) 0.0607 Uij ? ?
C26 -0.2315(7) -0.6604(7) -0.0308(2) 0.0517 Uij ? ?
C27 0.0000(7) -0.5448(6) -0.1106(2) 0.0375 Uij ? ?
C28 0.0540(7) -0.5653(7) -0.1376(2) 0.0386 Uij ? ?
C29 0.1407(6) -0.5127(7) -0.1445(2) 0.0392 Uij ? ?
C30 0.1791(6) -0.4353(7) -0.1246(2) 0.0392 Uij ? ?
C31 0.2681(7) -0.3783(7) -0.1320(2) 0.0452 Uij ? ?
C32 0.3037(7) -0.3040(7) -0.1117(2) 0.0541 Uij ? ?
C33 0.2495(7) -0.2827(7) -0.0848(2) 0.0528 Uij ? ?
C34 0.1611(7) -0.3383(7) -0.0770(2) 0.0454 Uij ? ?
C35 0.1228(6) -0.4142(6) -0.0973(2) 0.0320 Uij ? ?
C36 0.0326(6) -0.4709(6) -0.0901(2) 0.0333 Uij ? ?
C37 -0.0269(6) -0.4471(6) -0.0613(2) 0.0344 Uij ? ?
C38 -0.1107(6) -0.3838(7) -0.0624(2) 0.0426 Uij ? ?
C39 -0.1663(7) -0.3596(7) -0.0354(2) 0.0488 Uij ? ?
C40 -0.1355(8) -0.3989(8) -0.0073(2) 0.0556 Uij ? ?
C41 -0.0503(7) -0.4649(7) -0.0050(2) 0.0490 Uij ? ?
C42 -0.0183(9) -0.5061(9) 0.0232(2) 0.0649 Uij ? ?
C43 0.0639(10) -0.570(1) 0.0253(2) 0.0864 Uij ? ?
C44 0.1171(8) -0.5962(8) -0.0012(2) 0.0741 Uij ? ?
C45 0.0883(7) -0.5587(8) -0.0296(2) 0.0518 Uij ? ?
C46 0.0040(7) -0.4898(7) -0.0324(2) 0.0401 Uij ? ?
H1 -0.6291 -0.5766 -0.1295 0.0843 Uij ? ?
H2 -0.5930 -0.7004 -0.1313 0.0843 Uij ? ?
H3 -0.7176 -0.6603 -0.0816 0.0843 Uij ? ?
H4 -0.6376 -0.7477 -0.0773 0.0683 Uij ? ?
H5 -0.6434 -0.6472 -0.0358 0.0843 Uij ? ?
H6 -0.5070 -0.7250 -0.0399 0.0843 Uij ? ?
H7 -0.4306 -0.5972 -0.0402 0.0843 Uij ? ?
H8 -0.4459 -0.7537 -0.0897 0.0843 Uij ? ?
H9 -0.6709 -0.5095 -0.0708 0.0843 Uij ? ?
H10 -0.4430 -0.4527 -0.0845 0.0843 Uij ? ?
H11 -0.5445 -0.4499 -0.1098 0.0843 Uij ? ?
H12 -0.6331 -0.4560 -0.0185 0.0843 Uij ? ?
H13 -0.4503 -0.3593 -0.0469 0.0843 Uij ? ?
H14 -0.4806 -0.3274 -0.0074 0.0843 Uij ? ?
H15 -0.4003 -0.6576 -0.1460 0.0843 Uij ? ?
H16 -0.3655 -0.6091 -0.1390 0.0730 Uij ? ?
H17 -0.5620 -0.6270 -0.1830 0.0843 Uij ? ?
H18 -0.6323 -0.5221 -0.2218 0.0843 Uij ? ?
H19 -0.5976 -0.3481 -0.2217 0.0843 Uij ? ?
H20 -0.4964 -0.2750 -0.1837 0.0601 Uij ? ?
H21 -0.4256 -0.3783 -0.1443 0.0843 Uij ? ?
H22 -0.2993 -0.6779 -0.1103 0.0843 Uij ? ?
H23 -0.3267 -0.8562 -0.0986 0.0843 Uij ? ?
H24 -0.3114 -1.0319 -0.0944 0.0843 Uij ? ?
H25 -0.2412 -1.1082 -0.0503 0.0843 Uij ? ?
H26 -0.1825 -1.0097 -0.0098 0.0684 Uij ? ?
H27 -0.1655 -0.6811 0.0122 0.0843 Uij ? ?
H28 -0.2298 -0.5869 -0.0307 0.0843 Uij ? ?
H29 -0.2157 -0.5254 -0.0908 0.0843 Uij ? ?
H30 0.0443 -0.6260 -0.1537 0.0843 Uij ? ?
H31 0.1766 -0.5274 -0.1633 0.0843 Uij ? ?
H32 0.3042 -0.3918 -0.1507 0.0588 Uij ? ?
H33 0.3643 -0.2666 -0.1164 0.0692 Uij ? ?
H34 0.2734 -0.2301 -0.0713 0.0843 Uij ? ?
H35 0.1266 -0.3233 -0.0580 0.0843 Uij ? ?
H36 -0.2254 -0.3157 -0.0364 0.0843 Uij ? ?
H37 -0.1733 -0.3815 0.0109 0.0843 Uij ? ?
H38 -0.0544 -0.4896 0.0419 0.0601 Uij ? ?
H39 0.0860 -0.5961 0.0445 0.0843 Uij ? ?
H40 0.1746 -0.6415 0.0002 0.0843 Uij ? ?
H41 0.1249 -0.5783 -0.0475 0.0647 Uij ? ?
H42 -0.1037 -0.6526 -0.1206 0.0843 Uij ? ?
H43 -0.2078 -0.2988 -0.0851 0.0843 Uij ? ?

loop_
_atom_site_aniso_label
_atom_site_aniso_U_11
_atom_site_aniso_U_22
_atom_site_aniso_U_33
_atom_site_aniso_U_12
_atom_site_aniso_U_13
_atom_site_aniso_U_23
Cl 0.053(2) 0.043(1) 0.063(1) 0.005(1) -0.008(1) 0.006(1)
O1 0.037(4) 0.040(4) 0.067(4) -0.004(3) 0.005(3) 0.010(3)
O2 0.042(4) 0.053(4) 0.044(3) -0.017(3) 0.005(3) -0.011(3)
O3 0.055(4) 0.072(5) 0.057(4) 0.022(4) -0.004(3) 0.016(4)
N1 0.023(4) 0.042(5) 0.046(4) 0.007(3) 0.000(4) 0.002(4)
N2 0.056(6) 0.068(7) 0.063(5) 0.005(5) -0.014(5) 0.012(6)
C1 0.045(6) 0.060(7) 0.032(5) -0.023(5) 0.007(5) -0.007(5)
C2 0.035(6) 0.056(7) 0.063(6) -0.010(5) 0.004(5) -0.005(6)
C3 0.025(5) 0.053(6) 0.049(5) -0.003(4) 0.000(5) 0.008(5)
C4 0.037(6) 0.044(6) 0.037(5) -0.006(5) 0.006(4) 0.011(5)
C5 0.039(6) 0.035(5) 0.031(4) 0.000(4) 0.012(4) 0.002(4)
C6 0.032(5) 0.046(6) 0.046(5) 0.003(5) 0.000(5) -0.002(5)
C7 0.041(6) 0.038(6) 0.033(5) 0.002(4) 0.005(4) -0.013(4)
C8 0.077(8) 0.055(7) 0.037(5) 0.013(6) 0.010(6) 0.006(6)
C9 0.12(1) 0.13(1) 0.064(7) -0.07(1) 0.030(8) -0.040(8)
C10 0.038(6) 0.056(7) 0.043(5) 0.018(5) 0.015(5) -0.005(5)
C11 0.039(6) 0.045(6) 0.036(5) -0.006(5) 0.004(5) -0.008(5)
C12 0.074(8) 0.049(7) 0.046(5) -0.009(6) 0.009(6) -0.010(5)
C13 0.081(8) 0.083(9) 0.034(6) -0.009(7) -0.012(6) -0.007(6)
C14 0.082(9) 0.069(8) 0.033(6) -0.004(7) -0.007(6) 0.021(6)
C15 0.061(7) 0.058(7) 0.032(5) -0.005(6) 0.009(5) 0.000(5)
C16 0.044(6) 0.064(7) 0.029(5) -0.005(6) 0.002(4) -0.002(5)
C17 0.026(5) 0.033(5) 0.046(5) 0.000(4) -0.006(4) 0.002(5)
C18 0.028(5) 0.038(6) 0.055(6) 0.003(4) -0.002(5) -0.002(5)
C19 0.031(5) 0.041(6) 0.040(5) 0.003(4) 0.005(5) -0.002(5)
C20 0.043(6) 0.052(7) 0.041(5) 0.004(5) 0.004(5) -0.004(5)
C21 0.037(6) 0.044(7) 0.078(7) -0.003(5) 0.009(5) -0.006(6)
C22 0.065(8) 0.047(7) 0.078(7) 0.003(6) 0.014(7) 0.012(6)
C23 0.046(7) 0.055(7) 0.065(7) -0.001(5) -0.003(6) 0.018(6)
C24 0.035(6) 0.054(7) 0.050(6) 0.000(5) -0.002(5) -0.004(6)
C25 0.064(8) 0.075(8) 0.043(6) 0.006(6) -0.020(5) -0.005(6)
C26 0.052(7) 0.048(6) 0.055(6) 0.004(5) -0.010(6) -0.012(5)
C27 0.031(5) 0.035(5) 0.046(5) -0.001(5) -0.007(5) 0.005(5)
C28 0.041(6) 0.045(6) 0.030(5) 0.008(5) 0.003(5) -0.008(4)
C29 0.028(5) 0.057(6) 0.032(5) 0.009(5) 0.003(4) 0.000(5)
C30 0.030(5) 0.052(6) 0.036(5) 0.009(5) -0.007(4) 0.011(5)
C31 0.030(6) 0.048(7) 0.058(6) 0.004(5) 0.013(5) 0.016(5)
C32 0.046(6) 0.049(7) 0.068(7) 0.003(5) 0.000(6) 0.010(6)
C33 0.049(6) 0.033(6) 0.076(7) -0.003(5) -0.020(6) -0.003(5)
C34 0.044(6) 0.041(6) 0.052(6) 0.004(5) -0.004(5) 0.004(5)
C35 0.030(5) 0.031(5) 0.035(5) 0.005(4) -0.012(4) 0.003(4)
C36 0.035(5) 0.035(5) 0.030(4) 0.002(4) -0.004(4) 0.007(4)
C37 0.029(5) 0.039(5) 0.035(5) -0.002(4) -0.001(4) -0.002(4)
C38 0.030(5) 0.065(7) 0.033(5) -0.005(5) 0.009(5) 0.000(5)
C39 0.037(6) 0.046(6) 0.063(6) 0.002(5) 0.010(5) -0.018(6)
C40 0.056(7) 0.069(7) 0.043(6) -0.019(6) 0.014(5) -0.007(6)
C41 0.050(7) 0.056(7) 0.041(6) -0.007(5) -0.003(5) -0.004(5)
C42 0.072(9) 0.094(9) 0.029(5) -0.023(7) 0.000(6) 0.007(6)
C43 0.075(10) 0.13(1) 0.051(7) -0.016(9) -0.021(7) 0.040(8)
C44 0.065(8) 0.100(9) 0.057(6) 0.000(7) -0.010(7) 0.038(7)
C45 0.051(7) 0.065(7) 0.040(5) -0.003(6) -0.008(5) 0.009(5)
C46 0.043(6) 0.041(6) 0.037(5) -0.003(5) -0.001(5) -0.006(5)
#--------------------------------------------------------------------------
#---
_refine_special_details          ?
_refine_ls_structure_factor_coef F
_refine_ls_matrix_type           full
_refine_ls_weighting_scheme      sigma
_refine_ls_hydrogen_treatment    ?
_refine_ls_extinction_method     Zachariasen_type_2_Gaussian_isotropic
_refine_ls_extinction_coef       1.05381
_refine_ls_abs_structure_details ?
_refine_ls_abs_structure_Flack   ?
_refine_ls_number_reflns         1961
_refine_ls_number_parameters     470
_refine_ls_number_restraints     0
_refine_ls_number_constraints    ?
_refine_ls_R_factor_all          ?
_refine_ls_R_factor_obs          0.0570
_refine_ls_wR_factor_all         ?
_refine_ls_wR_factor_obs         0.0560
_refine_ls_goodness_of_fit_all   ?
_refine_ls_goodness_of_fit_obs   1.490
_refine_ls_shift/esd_max         0.0140
_refine_ls_shift/esd_mean        ?
_refine_diff_density_min         0.24010
_refine_diff_density_max         -0.27610
#--------------------------------------------------------------------------=
#---
_geom_special_details            ?
loop_
_geom_bond_atom_site_label_1
_geom_bond_atom_site_label_2
_geom_bond_distance
_geom_bond_site_symmetry_1
_geom_bond_site_symmetry_2
_geom_bond_publ_flag
O(1) C(17) 1.420(9) ? ? yes
O(2) C(27) 1.370(9) ? ? yes
O(3) C(38) 1.379(9) ? ? yes
N(1) C(1) 1.520(10) ? ? yes
N(1) C(5) 1.543(9) ? ? yes
N(1) C(7) 1.531(9) ? ? yes
N(1) C(10) 1.528(9) ? ? yes
N(2) C(24) 1.40(1) ? ? yes
N(2) C(25) 1.30(1) ? ? yes
C(1) C(2) 1.55(1) ? ? yes
C(2) C(3) 1.54(1) ? ? yes
C(3) C(4) 1.55(1) ? ? yes
C(3) C(6) 1.54(1) ? ? yes
C(4) C(5) 1.557(10) ? ? yes
C(5) C(17) 1.57(1) ? ? yes
C(6) C(7) 1.53(1) ? ? yes
C(6) C(8) 1.54(1) ? ? yes
C(8) C(9) 1.25(1) ? ? yes
C(10) C(11) 1.52(1) ? ? yes
C(11) C(12) 1.37(1) ? ? yes
C(11) C(16) 1.39(1) ? ? yes
C(12) C(13) 1.40(1) ? ? yes
C(13) C(14) 1.37(1) ? ? yes
C(14) C(15) 1.37(1) ? ? yes
C(15) C(16) 1.39(1) ? ? yes
C(17) C(18) 1.52(1) ? ? yes
C(18) C(19) 1.39(1) ? ? yes
C(18) C(26) 1.37(1) ? ? yes
C(19) C(20) 1.43(1) ? ? yes
C(19) C(24) 1.41(1) ? ? yes
C(20) C(21) 1.36(1) ? ? yes
C(21) C(22) 1.40(1) ? ? yes
C(22) C(23) 1.36(1) ? ? yes
C(23) C(24) 1.43(1) ? ? yes
C(25) C(26) 1.42(1) ? ? yes
C(27) C(28) 1.39(1) ? ? yes
C(27) C(36) 1.38(1) ? ? yes
C(28) C(29) 1.35(1) ? ? yes
C(29) C(30) 1.41(1) ? ? yes
C(30) C(31) 1.41(1) ? ? yes
C(30) C(35) 1.416(10) ? ? yes
C(31) C(32) 1.38(1) ? ? yes
C(32) C(33) 1.39(1) ? ? yes
C(33) C(34) 1.40(1) ? ? yes
C(34) C(35) 1.41(1) ? ? yes
C(35) C(36) 1.42(1) ? ? yes
C(36) C(37) 1.50(1) ? ? yes
C(37) C(38) 1.37(1) ? ? yes
C(37) C(46) 1.424(10) ? ? yes
C(38) C(39) 1.41(1) ? ? yes
C(39) C(40) 1.38(1) ? ? yes
C(40) C(41) 1.40(1) ? ? yes
C(41) C(42) 1.40(1) ? ? yes
C(41) C(46) 1.41(1) ? ? yes
C(42) C(43) 1.36(1) ? ? yes
C(43) C(44) 1.38(1) ? ? yes
C(44) C(45) 1.37(1) ? ? yes
C(45) C(46) 1.42(1) ? ? yes
#--------------------------------------------------------------------------=
#---
loop_
_geom_angle_atom_site_label_1
_geom_angle_atom_site_label_2
_geom_angle_atom_site_label_3
_geom_angle
_geom_angle_site_symmetry_1
_geom_angle_site_symmetry_2
_geom_angle_site_symmetry_3
_geom_angle_publ_flag
C(1) N(1) C(5) 105.5(6) ? ? ? yes
C(1) N(1) C(7) 109.3(6) ? ? ? yes
C(1) N(1) C(10) 109.2(6) ? ? ? yes
C(5) N(1) C(7) 111.3(6) ? ? ? yes
C(5) N(1) C(10) 110.9(6) ? ? ? yes
C(7) N(1) C(10) 110.5(6) ? ? ? yes
C(24) N(2) C(25) 115.6(8) ? ? ? yes
N(1) C(1) C(2) 109.3(6) ? ? ? yes
C(1) C(2) C(3) 109.3(6) ? ? ? yes
C(2) C(3) C(4) 108.8(8) ? ? ? yes
C(2) C(3) C(6) 105.9(7) ? ? ? yes
C(4) C(3) C(6) 108.1(7) ? ? ? yes
C(3) C(4) C(5) 109.0(7) ? ? ? yes
N(1) C(5) C(4) 106.9(6) ? ? ? yes
N(1) C(5) C(17) 115.4(6) ? ? ? yes
C(4) C(5) C(17) 112.4(7) ? ? ? yes
C(3) C(6) C(7) 109.3(7) ? ? ? yes
C(3) C(6) C(8) 110.6(7) ? ? ? yes
C(7) C(6) C(8) 113.0(7) ? ? ? yes
N(1) C(7) C(6) 108.9(7) ? ? ? yes
C(6) C(8) C(9) 128.6(9) ? ? ? yes
N(1) C(10) C(11) 115.3(7) ? ? ? yes
C(10) C(11) C(12) 123.0(9) ? ? ? yes
C(10) C(11) C(16) 117.7(8) ? ? ? yes
C(12) C(11) C(16) 119.1(8) ? ? ? yes
C(11) C(12) C(13) 121.3(9) ? ? ? yes
C(12) C(13) C(14) 118.5(9) ? ? ? yes
C(13) C(14) C(15) 121.1(9) ? ? ? yes
C(14) C(15) C(16) 120.3(9) ? ? ? yes
C(11) C(16) C(15) 119.5(8) ? ? ? yes
O(1) C(17) C(5) 108.4(6) ? ? ? yes
O(1) C(17) C(18) 111.9(7) ? ? ? yes
C(5) C(17) C(18) 109.6(7) ? ? ? yes
C(17) C(18) C(19) 122.3(8) ? ? ? yes
C(17) C(18) C(26) 118.7(8) ? ? ? yes
C(19) C(18) C(26) 119.0(9) ? ? ? yes
C(18) C(19) C(20) 124.6(8) ? ? ? yes
C(18) C(19) C(24) 117.9(8) ? ? ? yes
C(20) C(19) C(24) 117.4(8) ? ? ? yes
C(19) C(20) C(21) 120.4(9) ? ? ? yes
C(20) C(21) C(22) 121.7(9) ? ? ? yes
C(21) C(22) C(23) 120.3(9) ? ? ? yes
C(22) C(23) C(24) 119.1(9) ? ? ? yes
N(2) C(24) C(19) 123.5(9) ? ? ? yes
N(2) C(24) C(23) 115.5(9) ? ? ? yes
C(19) C(24) C(23) 121.1(9) ? ? ? yes
N(2) C(25) C(26) 124.9(9) ? ? ? yes
C(18) C(26) C(25) 119.0(9) ? ? ? yes
O(2) C(27) C(28) 120.5(8) ? ? ? yes
O(2) C(27) C(36) 118.0(7) ? ? ? yes
C(28) C(27) C(36) 121.5(8) ? ? ? yes
C(27) C(28) C(29) 120.5(8) ? ? ? yes
C(28) C(29) C(30) 121.5(7) ? ? ? yes
C(29) C(30) C(31) 121.7(8) ? ? ? yes
C(29) C(30) C(35) 117.5(8) ? ? ? yes
C(31) C(30) C(35) 120.7(8) ? ? ? yes
C(30) C(31) C(32) 119.9(8) ? ? ? yes
C(31) C(32) C(33) 120.0(9) ? ? ? yes
C(32) C(33) C(34) 121.2(9) ? ? ? yes
C(33) C(34) C(35) 120.1(8) ? ? ? yes
C(30) C(35) C(34) 118.1(7) ? ? ? yes
C(30) C(35) C(36) 120.6(8) ? ? ? yes
C(34) C(35) C(36) 121.3(7) ? ? ? yes
C(27) C(36) C(35) 118.4(7) ? ? ? yes
C(27) C(36) C(37) 121.4(7) ? ? ? yes
C(35) C(36) C(37) 120.1(7) ? ? ? yes
C(36) C(37) C(38) 120.6(7) ? ? ? yes
C(36) C(37) C(46) 120.1(7) ? ? ? yes
C(38) C(37) C(46) 119.3(8) ? ? ? yes
O(3) C(38) C(37) 117.1(7) ? ? ? yes
O(3) C(38) C(39) 121.8(8) ? ? ? yes
C(37) C(38) C(39) 121.1(8) ? ? ? yes
C(38) C(39) C(40) 119.9(8) ? ? ? yes
C(39) C(40) C(41) 121.1(8) ? ? ? yes
C(40) C(41) C(42) 121.9(9) ? ? ? yes
C(40) C(41) C(46) 118.4(8) ? ? ? yes
C(42) C(41) C(46) 119.7(9) ? ? ? yes
C(41) C(42) C(43) 121.7(10) ? ? ? yes
C(42) C(43) C(44) 119.5(9) ? ? ? yes
C(43) C(44) C(45) 121.1(10) ? ? ? yes
C(44) C(45) C(46) 120.8(9) ? ? ? yes
C(37) C(46) C(41) 120.2(8) ? ? ? yes
C(37) C(46) C(45) 122.6(8) ? ? ? yes
C(41) C(46) C(45) 117.2(8) ? ? ? yes
